experiments/eusolverbv/4/DirectTrainGenes/1000100101101000101101100111100101011100100/293_.out
(define-fun f ((x (BitVec 64))) (BitVec 64)
     (if0 (func22 (func26 x x)) (if0 (func22 (func31 #x0000000000000001 x)) (func50 x) (func51 x)) (if0 (func22 (func41 x)) (if0 (func22 (func31 #x0000000000000001 x)) (func51 x) (func50 x)) (func50 x))))
0.7249505985528231
